3 
9 
5 
9 
12 
9 
9 
8 
8 
9 
8 
8 
7 
11 
9 
10 
5 
7 
9 
10 
5 
4 
9 
6 
12 
3 
7 
12 
10 
1 
9 
14 
6 
6 
8 
7 
7 
5 
10 
6 
10 
7 
5 
10 
7 
8 
13 
2 
7 
9 
11 
10 
10 
3 
8 
6 
7 
5 
7 
4 
13 
11 
11 
11 
7 
10 
1 
5 
7 
10 
8 
5 
7 
11 
7 
12 
7 
5 
8 
7 
11 
15 
8 
18 
8 
5 
3 
4 
10 
11 
7 
7 
5 
6 
5 
11 
7 
4 
2 
10 
